\ENCODING=ISO-8859-1
\Problem name: 

Minimize
 obj1: 5 x_0_1 + 10 x_0_2 + 12 x_0_3 + 8 x_0_4 + 5 x_1_0 + 6 x_1_2 + 9 x_1_3
       + 10 x_1_4 + 10 x_2_0 + 6 x_2_1 + 7 x_2_3 + 8 x_2_4 + 12 x_3_0 + 9 x_3_1
       + 7 x_3_2 + 5 x_3_4 + 8 x_4_0 + 10 x_4_1 + 8 x_4_2 + 5 x_4_3 + 10 z_0_1
       + 10 z_0_2 + 10 z_0_3 + 10 z_0_4 + 10 z_1_2 + 10 z_1_3 + 10 z_1_4
       + 10 z_2_1 + 10 z_2_3 + 10 z_2_4 + 10 z_3_1 + 10 z_3_2 + 10 z_3_4
       + 10 z_4_1 + 10 z_4_2 + 10 z_4_3 + 0 u_0
Subject To
 salida_deposito#0:     x_0_1 + x_0_2 + x_0_3 + x_0_4  = 1
 llegada_deposito#1:    x_1_0 + x_2_0 + x_3_0 + x_4_0  = 1
 llegada_1#2:           x_0_1 + x_2_1 + x_3_1 + x_4_1  = 1
 llegada_2#3:           x_0_2 + x_1_2 + x_3_2 + x_4_2  = 1
 llegada_3#4:           x_0_3 + x_1_3 + x_2_3 + x_4_3  = 1
 llegada_4#5:           x_0_4 + x_1_4 + x_2_4 + x_3_4  = 1
 salida_1#6:            x_1_0 + x_1_2 + x_1_3 + x_1_4  = 1
 salida_2#7:            x_2_0 + x_2_1 + x_2_3 + x_2_4  = 1
 salida_3#8:            x_3_0 + x_3_1 + x_3_2 + x_3_4  = 1
 salida_4#9:            x_4_0 + x_4_1 + x_4_2 + x_4_3  = 1
 mtz_1_2#10:            4 x_1_2 + u_1 - u_2 <= 3
 mtz_1_3#11:            4 x_1_3 + u_1 - u_3 <= 3
 mtz_1_4#12:            4 x_1_4 + u_1 - u_4 <= 3
 mtz_2_1#13:            4 x_2_1 - u_1 + u_2 <= 3
 mtz_2_3#14:            4 x_2_3 + u_2 - u_3 <= 3
 mtz_2_4#15:            4 x_2_4 + u_2 - u_4 <= 3
 mtz_3_1#16:            4 x_3_1 - u_1 + u_3 <= 3
 mtz_3_2#17:            4 x_3_2 - u_2 + u_3 <= 3
 mtz_3_4#18:            4 x_3_4 + u_3 - u_4 <= 3
 mtz_4_1#19:            4 x_4_1 - u_1 + u_4 <= 3
 mtz_4_2#20:            4 x_4_2 - u_2 + u_4 <= 3
 mtz_4_3#21:            4 x_4_3 - u_3 + u_4 <= 3
 _exclusivo_4#22:       x_0_4 + x_1_4 + x_2_4 + x_3_4  = 1
 dentro_rango_0_1#23:   1000000 a_0_1 >= -400
 fuera_rango_0_1#24:    - 1000000 a_0_1 >= 401
 dentro_rango_0_2#25:   1000000 a_0_2 >= -300
 fuera_rango_0_2#26:    - 1000000 a_0_2 >= 301
 dentro_rango_0_3#27:   1000000 a_0_3 >= -200
 fuera_rango_0_3#28:    - 1000000 a_0_3 >= 201
 dentro_rango_0_4#29:   1000000 a_0_4 >= -250
 fuera_rango_0_4#30:    - 1000000 a_0_4 >= 251
 dentro_rango_1_2#31:   1000000 a_1_2 >= -380
 fuera_rango_1_2#32:    - 1000000 a_1_2 >= 381
 dentro_rango_1_3#33:   1000000 a_1_3 >= -320
 fuera_rango_1_3#34:    - 1000000 a_1_3 >= 321
 dentro_rango_1_4#35:   1000000 a_1_4 >= -300
 fuera_rango_1_4#36:    - 1000000 a_1_4 >= 301
 dentro_rango_2_1#37:   1000000 a_2_1 >= -380
 fuera_rango_2_1#38:    - 1000000 a_2_1 >= 381
 dentro_rango_2_3#39:   1000000 a_2_3 >= -360
 fuera_rango_2_3#40:    - 1000000 a_2_3 >= 361
 dentro_rango_2_4#41:   1000000 a_2_4 >= -340
 fuera_rango_2_4#42:    - 1000000 a_2_4 >= 341
 dentro_rango_3_1#43:   1000000 a_3_1 >= -320
 fuera_rango_3_1#44:    - 1000000 a_3_1 >= 321
 dentro_rango_3_2#45:   1000000 a_3_2 >= -360
 fuera_rango_3_2#46:    - 1000000 a_3_2 >= 361
 dentro_rango_3_4#47:   1000000 a_3_4 >= -400
 fuera_rango_3_4#48:    - 1000000 a_3_4 >= 401
 dentro_rango_4_1#49:   1000000 a_4_1 >= -300
 fuera_rango_4_1#50:    - 1000000 a_4_1 >= 301
 dentro_rango_4_2#51:   1000000 a_4_2 >= -340
 fuera_rango_4_2#52:    - 1000000 a_4_2 >= 341
 dentro_rango_4_3#53:   1000000 a_4_3 >= -400
 fuera_rango_4_3#54:    - 1000000 a_4_3 >= 401
 refrigerados_uno_0#55: z_0_1 + z_0_3 - w_0 <= 0
 refrigerados_uno_1#56: z_1_3 - w_1 <= 0
 refrigerados_uno_2#57: z_2_1 + z_2_3 - w_2 <= 0
 refrigerados_uno_3#58: z_3_1 - w_3 <= 0
 refrigerados_uno_4#59: z_4_1 + z_4_3 - w_4 <= 0
 z_implica_w_0_1#60:    z_0_1 - w_0 <= 0
 z_excluye_x_0_1#61:    x_0_1 + z_0_1 <= 1
 z_implica_w_0_2#62:    z_0_2 - w_0 <= 0
 z_excluye_x_0_2#63:    x_0_2 + z_0_2 <= 1
 z_implica_w_0_3#64:    z_0_3 - w_0 <= 0
 z_excluye_x_0_3#65:    x_0_3 + z_0_3 <= 1
 z_implica_w_0_4#66:    z_0_4 - w_0 <= 0
 z_excluye_x_0_4#67:    x_0_4 + z_0_4 <= 1
 z_implica_w_1_2#68:    z_1_2 - w_1 <= 0
 z_excluye_x_1_2#69:    x_1_2 + z_1_2 <= 1
 z_implica_w_1_3#70:    z_1_3 - w_1 <= 0
 z_excluye_x_1_3#71:    x_1_3 + z_1_3 <= 1
 z_implica_w_1_4#72:    z_1_4 - w_1 <= 0
 z_excluye_x_1_4#73:    x_1_4 + z_1_4 <= 1
 z_implica_w_2_1#74:    z_2_1 - w_2 <= 0
 z_excluye_x_2_1#75:    x_2_1 + z_2_1 <= 1
 z_implica_w_2_3#76:    z_2_3 - w_2 <= 0
 z_excluye_x_2_3#77:    x_2_3 + z_2_3 <= 1
 z_implica_w_2_4#78:    z_2_4 - w_2 <= 0
 z_excluye_x_2_4#79:    x_2_4 + z_2_4 <= 1
 z_implica_w_3_1#80:    z_3_1 - w_3 <= 0
 z_excluye_x_3_1#81:    x_3_1 + z_3_1 <= 1
 z_implica_w_3_2#82:    z_3_2 - w_3 <= 0
 z_excluye_x_3_2#83:    x_3_2 + z_3_2 <= 1
 z_implica_w_3_4#84:    z_3_4 - w_3 <= 0
 z_excluye_x_3_4#85:    x_3_4 + z_3_4 <= 1
 z_implica_w_4_1#86:    z_4_1 - w_4 <= 0
 z_excluye_x_4_1#87:    x_4_1 + z_4_1 <= 1
 z_implica_w_4_2#88:    z_4_2 - w_4 <= 0
 z_excluye_x_4_2#89:    x_4_2 + z_4_2 <= 1
 z_implica_w_4_3#90:    z_4_3 - w_4 <= 0
 z_excluye_x_4_3#91:    x_4_3 + z_4_3 <= 1
 atencion_1#92:         x_0_1 + x_2_1 + x_3_1 + x_4_1 + z_0_1 + z_2_1 + z_3_1
                        + z_4_1  = 1
 atencion_2#93:         x_0_2 + x_1_2 + x_3_2 + x_4_2 + z_0_2 + z_1_2 + z_3_2
                        + z_4_2  = 1
 atencion_3#94:         x_0_3 + x_1_3 + x_2_3 + x_4_3 + z_0_3 + z_1_3 + z_2_3
                        + z_4_3  = 1
 atencion_4#95:         x_0_4 + x_1_4 + x_2_4 + x_3_4 + z_0_4 + z_1_4 + z_2_4
                        + z_3_4  = 1
 min_entregas_0#96:     z_0_1 + z_0_2 + z_0_3 + z_0_4 - 4 w_0 >= 0
 max_entregas_0#97:     z_0_1 + z_0_2 + z_0_3 + z_0_4 - 3 w_0 <= 0
 min_entregas_1#98:     z_1_2 + z_1_3 + z_1_4 - 4 w_1 >= 0
 max_entregas_1#99:     z_1_2 + z_1_3 + z_1_4 - 3 w_1 <= 0
 min_entregas_2#100:    z_2_1 + z_2_3 + z_2_4 - 4 w_2 >= 0
 max_entregas_2#101:    z_2_1 + z_2_3 + z_2_4 - 3 w_2 <= 0
 min_entregas_3#102:    z_3_1 + z_3_2 + z_3_4 - 4 w_3 >= 0
 max_entregas_3#103:    z_3_1 + z_3_2 + z_3_4 - 3 w_3 <= 0
 min_entregas_4#104:    z_4_1 + z_4_2 + z_4_3 - 4 w_4 >= 0
 max_entregas_4#105:    z_4_1 + z_4_2 + z_4_3 - 3 w_4 <= 0
Bounds
 0 <= x_0_1 <= 1
 0 <= x_0_2 <= 1
 0 <= x_0_3 <= 1
 0 <= x_0_4 <= 1
 0 <= x_1_0 <= 1
 0 <= x_1_2 <= 1
 0 <= x_1_3 <= 1
 0 <= x_1_4 <= 1
 0 <= x_2_0 <= 1
 0 <= x_2_1 <= 1
 0 <= x_2_3 <= 1
 0 <= x_2_4 <= 1
 0 <= x_3_0 <= 1
 0 <= x_3_1 <= 1
 0 <= x_3_2 <= 1
 0 <= x_3_4 <= 1
 0 <= x_4_0 <= 1
 0 <= x_4_1 <= 1
 0 <= x_4_2 <= 1
 0 <= x_4_3 <= 1
 0 <= z_0_1 <= 1
 0 <= a_0_1 <= 1
 0 <= z_0_2 <= 1
 0 <= a_0_2 <= 1
 0 <= z_0_3 <= 1
 0 <= a_0_3 <= 1
 0 <= z_0_4 <= 1
 0 <= a_0_4 <= 1
 0 <= z_1_2 <= 1
 0 <= a_1_2 <= 1
 0 <= z_1_3 <= 1
 0 <= a_1_3 <= 1
 0 <= z_1_4 <= 1
 0 <= a_1_4 <= 1
 0 <= z_2_1 <= 1
 0 <= a_2_1 <= 1
 0 <= z_2_3 <= 1
 0 <= a_2_3 <= 1
 0 <= z_2_4 <= 1
 0 <= a_2_4 <= 1
 0 <= z_3_1 <= 1
 0 <= a_3_1 <= 1
 0 <= z_3_2 <= 1
 0 <= a_3_2 <= 1
 0 <= z_3_4 <= 1
 0 <= a_3_4 <= 1
 0 <= z_4_1 <= 1
 0 <= a_4_1 <= 1
 0 <= z_4_2 <= 1
 0 <= a_4_2 <= 1
 0 <= z_4_3 <= 1
 0 <= a_4_3 <= 1
 1 <= u_1 <= 4
 1 <= u_2 <= 4
 1 <= u_3 <= 4
 1 <= u_4 <= 4
      u_0 = 0
 0 <= w_0 <= 1
 0 <= w_1 <= 1
 0 <= w_2 <= 1
 0 <= w_3 <= 1
 0 <= w_4 <= 1
Binaries
 x_0_1  x_0_2  x_0_3  x_0_4  x_1_0  x_1_2  x_1_3  x_1_4  x_2_0  x_2_1  x_2_3 
 x_2_4  x_3_0  x_3_1  x_3_2  x_3_4  x_4_0  x_4_1  x_4_2  x_4_3  z_0_1  a_0_1 
 z_0_2  a_0_2  z_0_3  a_0_3  z_0_4  a_0_4  z_1_2  a_1_2  z_1_3  a_1_3  z_1_4 
 a_1_4  z_2_1  a_2_1  z_2_3  a_2_3  z_2_4  a_2_4  z_3_1  a_3_1  z_3_2  a_3_2 
 z_3_4  a_3_4  z_4_1  a_4_1  z_4_2  a_4_2  z_4_3  a_4_3  w_0  w_1  w_2  w_3 
 w_4 
Generals
 u_1  u_2  u_3  u_4  u_0 
End
